outputs/case_61.model.txt
capital_adequacy_ratio = 100
net_worth_ratio = 3
capital_improvement_plan_completed = False
net_worth = 100
supervision_action_taken = False
internal_control_system_established = True
internal_control_system_executed = True
internal_handling_system_established = True
internal_handling_system_executed = True
internal_handling_established = True
capital_adequate = False
capital_severely_insufficient = False
capital_level = 0
internal_handling_ok = True
supervision_measures_taken = False
internal_control_executed = True
violation_internal_handling = False
violation_internal_control = False
penalty = False
capital_improvement_completed = False
internal_handling_executed = True
internal_control_established = True
capital_significantly_deteriorated = False
internal_control_ok = True
financial_deterioration_measures_taken = False